c random clauses
p cnf 18 16
-18 -17 -15 -9 2 3 4 6 0
-18 -17 -6 1 3 4 7 10 0
-18 -14 -5 1 6 7 9 13 0
-18 -10 -5 -2 6 7 11 12 0
-18 -9 -5 -3 4 6 7 12 0
-18 -7 -4 -2 5 10 12 16 0
-17 -15 3 7 9 11 12 13 0
-17 -14 -11 -7 -2 -1 9 16 0
-16 -13 -5 7 9 14 15 17 0
-16 -10 -8 4 5 7 11 15 0
-16 -10 -3 -2 -1 4 13 17 0
-14 -13 -5 -3 -1 11 12 17 0
-13 -12 -9 -7 -4 1 15 18 0
-13 -8 -6 -3 1 5 16 17 0
-12 -6 -5 -4 7 10 14 17 0
-10 -9 -4 6 7 8 15 16 0
